Cost: 761
0-10-58-12-0
0-33-43-41-1-0
0-2-21-36-47-0
0-17-51-6-0
0-40-32-3-0
0-34-46-7-26-0
0-5-37-20-57-0
0-13-54-19-8-0
0-52-27-29-4-0
0-9-25-55-44-0
0-53-59-14-35-0
0-23-56-24-49-16-0
Cost: 761
0-52-27-29-4-0
0-53-59-14-35-0
0-3-32-40-0
0-6-51-17-0
0-57-20-37-5-0
0-1-41-43-33-0
0-9-25-55-44-0
0-16-49-24-56-23-0
0-2-21-36-47-0
0-10-58-12-0
0-26-7-46-34-0
0-8-19-54-13-0
Cost: 761
0-10-58-12-0
0-33-43-41-1-0
0-2-21-36-47-0
0-17-51-6-0
0-40-32-3-0
0-34-46-7-26-0
0-5-37-20-57-0
0-13-54-19-8-0
0-52-27-29-4-0
0-9-25-55-44-0
0-53-59-14-35-0
0-23-56-24-49-16-0
Cost: 761
0-52-27-29-4-0
0-47-36-21-2-0
0-34-46-7-26-0
0-58-10-12-0
0-5-37-20-57-0
0-1-41-43-33-0
0-9-25-55-44-0
0-35-14-59-53-0
0-17-51-6-0
0-13-54-19-8-0
0-16-49-24-56-23-0
0-40-32-3-0
Cost: 761
0-2-21-36-47-0
0-33-43-41-1-0
0-57-20-37-5-0
0-58-10-12-0
0-16-49-24-56-23-0
0-26-7-46-34-0
0-53-59-14-35-0
0-8-19-54-13-0
0-52-27-29-4-0
0-6-51-17-0
0-9-55-25-44-0
0-40-32-3-0
Cost: 761
0-3-32-40-0
0-13-54-19-8-0
0-9-55-25-44-0
0-16-49-24-56-23-0
0-26-7-46-34-0
0-1-43-41-33-0
0-2-21-36-47-0
0-6-51-17-0
0-10-58-12-0
0-4-29-27-52-0
0-53-59-14-35-0
0-57-20-37-5-0
Cost: 761
0-16-49-24-56-23-0
0-8-19-54-13-0
0-57-20-37-5-0
0-40-32-3-0
0-58-10-12-0
0-26-7-46-34-0
0-6-51-17-0
0-9-55-25-44-0
0-35-14-59-53-0
0-4-29-27-52-0
0-33-43-41-1-0
0-2-21-36-47-0
Cost: 761
0-16-49-24-56-23-0
0-8-19-54-13-0
0-57-20-37-5-0
0-40-32-3-0
0-58-10-12-0
0-26-7-46-34-0
0-6-51-17-0
0-9-55-25-44-0
0-35-14-59-53-0
0-4-29-27-52-0
0-33-43-41-1-0
0-2-21-36-47-0
Cost: 761
0-16-49-24-56-23-0
0-8-19-54-13-0
0-57-20-37-5-0
0-40-32-3-0
0-58-10-12-0
0-26-7-46-34-0
0-6-51-17-0
0-9-55-25-44-0
0-35-14-59-53-0
0-4-29-27-52-0
0-33-43-41-1-0
0-2-21-36-47-0
Cost: 761
0-16-49-24-56-23-0
0-8-19-54-13-0
0-57-20-37-5-0
0-40-32-3-0
0-58-10-12-0
0-26-7-46-34-0
0-6-51-17-0
0-9-55-25-44-0
0-35-14-59-53-0
0-4-29-27-52-0
0-33-43-41-1-0
0-2-21-36-47-0
Cost: 761
0-16-49-24-56-23-0
0-8-19-54-13-0
0-57-20-37-5-0
0-40-32-3-0
0-58-10-12-0
0-26-7-46-34-0
0-6-51-17-0
0-9-55-25-44-0
0-35-14-59-53-0
0-4-29-27-52-0
0-33-43-41-1-0
0-2-21-36-47-0
Cost: 761
0-2-21-36-47-0
0-4-29-27-52-0
0-23-56-24-49-16-0
0-40-32-3-0
0-33-43-41-1-0
0-9-25-55-44-0
0-57-20-37-5-0
0-34-46-7-26-0
0-58-10-12-0
0-35-14-59-53-0
0-17-51-6-0
0-8-19-54-13-0
Cost: 761
0-23-56-24-49-16-0
0-3-32-40-0
0-12-58-10-0
0-35-14-59-53-0
0-52-27-29-4-0
0-8-19-54-13-0
0-17-51-6-0
0-9-55-25-44-0
0-57-20-37-5-0
0-1-43-41-33-0
0-26-7-46-34-0
0-47-36-21-2-0
Cost: 761
0-6-51-17-0
0-34-46-7-26-0
0-5-37-20-57-0
0-35-14-59-53-0
0-47-36-21-2-0
0-12-58-10-0
0-4-29-27-52-0
0-9-55-25-44-0
0-8-19-54-13-0
0-33-41-43-1-0
0-40-32-3-0
0-16-49-24-56-23-0
Cost: 761
0-23-56-24-49-16-0
0-3-32-40-0
0-12-58-10-0
0-35-14-59-53-0
0-52-27-29-4-0
0-8-19-54-13-0
0-17-51-6-0
0-9-55-25-44-0
0-57-20-37-5-0
0-1-43-41-33-0
0-26-7-46-34-0
0-47-36-21-2-0
Cost: 761
0-23-56-24-49-16-0
0-3-32-40-0
0-12-58-10-0
0-35-14-59-53-0
0-52-27-29-4-0
0-8-19-54-13-0
0-17-51-6-0
0-9-55-25-44-0
0-57-20-37-5-0
0-1-43-41-33-0
0-26-7-46-34-0
0-47-36-21-2-0
Cost: 761
0-1-41-43-33-0
0-4-29-27-52-0
0-2-21-36-47-0
0-9-55-25-44-0
0-6-51-17-0
0-10-58-12-0
0-26-7-46-34-0
0-5-37-20-57-0
0-23-56-24-49-16-0
0-40-32-3-0
0-8-19-54-13-0
0-35-14-59-53-0
Cost: 761
0-53-59-14-35-0
0-12-58-10-0
0-44-25-55-9-0
0-57-20-37-5-0
0-17-51-6-0
0-13-54-19-8-0
0-3-32-40-0
0-52-27-29-4-0
0-47-36-21-2-0
0-23-56-24-49-16-0
0-34-46-7-26-0
0-1-43-41-33-0
Cost: 761
0-35-14-59-53-0
0-58-10-12-0
0-1-43-41-33-0
0-40-32-3-0
0-23-56-24-49-16-0
0-17-51-6-0
0-44-25-55-9-0
0-5-37-20-57-0
0-34-46-7-26-0
0-52-27-29-4-0
0-2-21-36-47-0
0-8-19-54-13-0
Cost: 761
0-35-14-59-53-0
0-58-10-12-0
0-1-43-41-33-0
0-40-32-3-0
0-23-56-24-49-16-0
0-17-51-6-0
0-44-25-55-9-0
0-5-37-20-57-0
0-34-46-7-26-0
0-52-27-29-4-0
0-2-21-36-47-0
0-8-19-54-13-0
Cost: 761
0-26-7-46-34-0
0-6-51-17-0
0-16-49-24-56-23-0
0-1-41-43-33-0
0-2-21-36-47-0
0-13-54-19-8-0
0-3-32-40-0
0-10-58-12-0
0-52-27-29-4-0
0-57-20-37-5-0
0-44-55-25-9-0
0-35-14-59-53-0
Cost: 761
0-26-7-46-34-0
0-6-51-17-0
0-16-49-24-56-23-0
0-1-41-43-33-0
0-2-21-36-47-0
0-13-54-19-8-0
0-3-32-40-0
0-10-58-12-0
0-52-27-29-4-0
0-57-20-37-5-0
0-44-55-25-9-0
0-35-14-59-53-0
Cost: 761
0-26-7-46-34-0
0-52-27-29-4-0
0-57-20-37-5-0
0-2-21-36-47-0
0-6-51-17-0
0-12-58-10-0
0-8-19-54-13-0
0-33-43-41-1-0
0-9-55-25-44-0
0-23-56-24-49-16-0
0-3-32-40-0
0-35-14-59-53-0
Cost: 761
0-26-7-46-34-0
0-6-51-17-0
0-16-49-24-56-23-0
0-1-41-43-33-0
0-2-21-36-47-0
0-13-54-19-8-0
0-3-32-40-0
0-10-58-12-0
0-52-27-29-4-0
0-57-20-37-5-0
0-44-55-25-9-0
0-35-14-59-53-0
Cost: 761
0-53-59-14-35-0
0-12-58-10-0
0-44-25-55-9-0
0-57-20-37-5-0
0-17-51-6-0
0-13-54-19-8-0
0-3-32-40-0
0-52-27-29-4-0
0-47-36-21-2-0
0-23-56-24-49-16-0
0-34-46-7-26-0
0-1-43-41-33-0
Cost: 761
0-35-14-59-53-0
0-58-10-12-0
0-1-43-41-33-0
0-40-32-3-0
0-23-56-24-49-16-0
0-17-51-6-0
0-44-25-55-9-0
0-5-37-20-57-0
0-34-46-7-26-0
0-52-27-29-4-0
0-2-21-36-47-0
0-8-19-54-13-0
Cost: 761
0-1-41-43-33-0
0-47-36-21-2-0
0-5-37-20-57-0
0-9-25-55-44-0
0-12-58-10-0
0-34-46-7-26-0
0-40-32-3-0
0-13-54-19-8-0
0-4-29-27-52-0
0-6-51-17-0
0-35-14-59-53-0
0-23-56-24-49-16-0
Cost: 771
0-2-42-43-1-0
0-58-10-25-55-0
0-6-33-51-17-0
0-4-27-52-0
0-57-20-37-5-0
0-30-21-36-48-0
0-32-44-3-0
0-12-9-40-0
0-53-59-14-35-0
0-13-54-19-8-0
0-49-24-56-23-16-0
0-26-7-46-34-0
Cost: 772
0-24-49-56-23-16-0
0-3-44-32-0
0-53-59-14-35-0
0-30-48-4-0
0-34-46-8-7-0
0-58-10-55-25-0
0-33-1-41-43-0
0-19-54-13-52-0
0-5-36-21-2-0
0-40-9-12-0
0-6-51-17-26-0
0-27-57-20-37-0
Cost: 761
0-53-59-14-35-0
0-13-54-19-8-0
0-6-51-17-0
0-52-27-29-4-0
0-40-32-3-0
0-16-49-24-56-23-0
0-58-10-12-0
0-44-55-25-9-0
0-1-41-43-33-0
0-47-36-21-2-0
0-26-7-46-34-0
0-57-20-37-5-0
Cost: 761
0-23-56-24-49-16-0
0-26-7-46-34-0
0-12-10-58-0
0-17-51-6-0
0-4-29-27-52-0
0-40-32-3-0
0-5-37-20-57-0
0-1-41-43-33-0
0-47-36-21-2-0
0-35-14-59-53-0
0-8-19-54-13-0
0-9-55-25-44-0
